rc101_2
0 73 60 105 7 51 13 12 11 9 8 50 10 6 1 75 66 59 77 101 99 72 55 67 90 4 35 33 37 36 39 34 32 31 38 68 89 61 96 0 86 85 95 87 70 88 104 57 91 62 79 2 14 15 17 19 16 18 21 52 20 22 83 65 58 2 92 64 102 80 82 26 24 54 23 53 30 28 3 25 29 27 56 81 94 69 71 97 100 0 74 103 93 84 78 63 3 98 76 46 44 45 43 42 40 41 48 47 5 49 0